102
103
103
110
111
112
114
127
128
138
138
141
139
144
149
155
156
155
160
164
164
166
173
174
145
175
176
178
177
182
186
189
191
191
195
196
198
198
198
199
201
202
203
200
207
207
199
208
211
211
212
213
214
215
211
217
217
183
218
219
220
220
222
223
223
225
226
226
229
243
246
247
250
262
278
287
296
299
300
301
304
304
304
307
308
308
309
310
315
291
317
317
318
319
324
325
325
329
329
331
332
333
330
335
336
340
343
303
344
346
347
346
346
348
351
350
352
352
352
353
354
354
341
356
356
357
357
358
360
351
345
356
358
369
359
370
347
329
371
371
347
372
373
373
359
375
375
376
376
376
377
377
380
380
370
381
382
363
382
383
383
384
385
386
363
387
388
388
380
390
392
393
394
396
397
400
399
403
382
406
406
408
408
411
43
43
48
589
749
80
8
8
96
